This is Ipopt version 3.13.4, running with linear solver mumps.
NOTE: Other linear solvers might be more efficient (see Ipopt documentation).

Number of nonzeros in equality constraint Jacobian...:     1020
Number of nonzeros in inequality constraint Jacobian.:        0
Number of nonzeros in Lagrangian Hessian.............:        0

Total number of variables............................:       60
                     variables with only lower bounds:        0
                variables with lower and upper bounds:       54
                     variables with only upper bounds:        0
Total number of equality constraints.................:       17
Total number of inequality constraints...............:        0
        inequality constraints with only lower bounds:        0
   inequality constraints with lower and upper bounds:        0
        inequality constraints with only upper bounds:        0

iter    objective    inf_pr   inf_du lg(mu)  ||d||  lg(rg) alpha_du alpha_pr  ls
   0  1.3117657e+01 4.07e-08 2.98e-01   0.0 0.00e+00    -  0.00e+00 0.00e+00   0
   1  1.3031910e+01 1.29e-01 9.13e+02  -1.2 4.29e-02    -  9.91e-01 1.00e+00f  1
   2  1.2487465e+01 1.39e+00 3.59e+05  -1.7 2.58e-01    -  1.00e+00 1.00e+00f  1
   3  1.3048501e+01 1.53e+00 4.60e+03  -1.1 4.37e-01    -  1.00e+00 1.00e+00f  1
   4  1.2726671e+01 2.08e+00 4.41e+03  -1.2 4.57e-01    -  1.00e+00 1.00e+00h  1
   5  1.2809885e+01 1.92e+00 1.62e+03  -1.2 1.45e+00    -  3.15e-01 8.00e-02h  3
   6  1.2878111e+01 1.86e+00 1.77e+03  -1.2 1.49e+00    -  3.23e-01 3.31e-02h  5
   7  1.2920570e+01 1.81e+00 2.00e+03  -1.2 1.11e+00    -  9.75e-01 3.15e-02h  5
   8  1.2941393e+01 1.78e+00 2.03e+03  -1.2 5.10e-01    -  5.74e-01 1.56e-02h  7
   9  1.2943212e+01 1.78e+00 2.04e+03  -1.2 7.01e-01    -  1.00e+00 1.44e-03h 10
iter    objective    inf_pr   inf_du lg(mu)  ||d||  lg(rg) alpha_du alpha_pr  ls
  10  1.3429420e+01 2.59e+00 3.90e+04  -1.2 6.89e-01    -  4.32e-01 3.73e-01h  2
  11  1.4157788e+01 1.61e+00 9.80e+05  -1.2 3.72e-01    -  1.00e+00 1.00e+00h  1
